p edge 30 79
e 1 3
e 1 7
e 1 10
e 1 12
e 1 15
e 1 19
e 1 20
e 1 23
e 1 26
e 2 6
e 2 10
e 2 16
e 2 18
e 2 23
e 3 14
e 3 15
e 3 19
e 3 20
e 3 29
e 4 16
e 4 18
e 4 25
e 5 10
e 5 16
e 5 21
e 5 24
e 5 30
e 6 10
e 6 15
e 6 20
e 6 28
e 7 14
e 7 23
e 8 12
e 8 20
e 9 19
e 9 20
e 9 22
e 10 24
e 11 16
e 11 18
e 11 25
e 12 15
e 12 22
e 12 23
e 12 25
e 12 26
e 12 28
e 12 30
e 13 18
e 13 23
e 14 16
e 14 19
e 14 20
e 14 23
e 14 28
e 14 29
e 15 17
e 15 21
e 15 22
e 15 29
e 16 17
e 16 18
e 16 20
e 16 21
e 16 24
e 16 25
e 17 18
e 17 22
e 18 23
e 19 22
e 20 24
e 21 23
e 22 29
e 22 30
e 24 25
e 24 26
e 25 27
e 26 27
