p edge 50 81
e 1 2
e 1 26
e 2 3
e 2 27
e 3 4
e 3 28
e 4 5
e 4 29
e 5 6
e 5 30
e 6 7
e 6 31
e 7 8
e 7 32
e 8 9
e 8 33
e 9 10
e 9 34
e 10 11
e 10 35
e 11 12
e 11 36
e 12 13
e 12 37
e 13 14
e 13 38
e 14 15
e 14 39
e 15 16
e 15 40
e 16 17
e 16 41
e 17 18
e 17 34
e 18 19
e 18 35
e 19 20
e 19 36
e 20 21
e 20 37
e 21 22
e 21 38
e 22 23
e 22 39
e 23 24
e 23 40
e 24 25
e 24 41
e 25 26
e 25 42
e 26 27
e 26 43
e 27 28
e 27 44
e 28 29
e 28 45
e 29 30
e 29 46
e 30 31
e 30 47
e 31 32
e 31 48
e 32 33
e 32 49
e 33 34
e 34 35
e 35 36
e 36 37
e 37 38
e 38 39
e 39 40
e 40 41
e 41 42
e 42 43
e 43 44
e 44 45
e 45 46
e 46 47
e 47 48
e 48 49
e 49 50
